9601
3520
3637
9409
8661
5806
5661
10187
9027
7487
7004
5566
5216
6387
7518
4001
7478
8495
4776
6157
2589
2347
4455
5179
2223
964
2274
9294
8494
9756
8564
3762
3400
2070
8943
6239
9096
5722
7531
1028
2469
9340
1955
5835
1533
1754
8047
9210
6270
6171
